N = 7;
H = 5;
T = 2;

avail = array3d(1..N, 1..H, 1..T, [8, 0, 4, 10, 7, 4, 3, 0, 6, 9, 6, 9, 5, 6, 1, 0, 3, 7, 4, 3, 10, 2, 0, 10, 7, 7, 8, 2, 10, 6, 9, 3, 4, 8, 9, 0, 3, 8, 7, 7, 4, 3, 1, 1, 9, 5, 6, 1, 1, 10, 0, 10, 4, 5, 8, 4, 0, 8, 6, 3, 4, 6, 4, 0, 8, 2, 1, 3, 0, 7]);

r = array2d(1..H, 1..T, [2, 3, 1, 0, 2, 1, 2, 2, 1, 3]);
